solution status: time limit reached
objective value:                                   84
x(2,1)                                              1 	(obj:1)
x(1,3)                                              1 	(obj:1)
x(1,6)                                              1 	(obj:1)
x(2,8)                                              1 	(obj:1)
x(1,10)                                             1 	(obj:1)
x(2,12)                                             1 	(obj:1)
x(1,14)                                             1 	(obj:1)
x(2,16)                                             1 	(obj:1)
x(1,18)                                             1 	(obj:1)
x(2,18)                                             1 	(obj:1)
x(3,4)                                              1 	(obj:1)
x(3,5)                                              1 	(obj:1)
x(3,10)                                             1 	(obj:1)
x(3,14)                                             1 	(obj:1)
x(4,2)                                              1 	(obj:1)
x(4,7)                                              1 	(obj:1)
x(4,12)                                             1 	(obj:1)
x(4,17)                                             1 	(obj:1)
x(4,19)                                             1 	(obj:1)
x(5,4)                                              1 	(obj:1)
x(5,9)                                              1 	(obj:1)
x(5,15)                                             1 	(obj:1)
x(6,1)                                              1 	(obj:1)
x(6,6)                                              1 	(obj:1)
x(6,11)                                             1 	(obj:1)
x(6,13)                                             1 	(obj:1)
x(6,18)                                             1 	(obj:1)
x(7,3)                                              1 	(obj:1)
x(7,8)                                              1 	(obj:1)
x(7,16)                                             1 	(obj:1)
x(8,2)                                              1 	(obj:1)
x(8,5)                                              1 	(obj:1)
x(8,10)                                             1 	(obj:1)
x(8,12)                                             1 	(obj:1)
x(8,14)                                             1 	(obj:1)
x(8,19)                                             1 	(obj:1)
x(9,2)                                              1 	(obj:1)
x(9,7)                                              1 	(obj:1)
x(9,14)                                             1 	(obj:1)
x(9,17)                                             1 	(obj:1)
x(10,4)                                             1 	(obj:1)
x(10,9)                                             1 	(obj:1)
x(10,11)                                            1 	(obj:1)
x(10,16)                                            1 	(obj:1)
x(11,1)                                             1 	(obj:1)
x(11,6)                                             1 	(obj:1)
x(11,13)                                            1 	(obj:1)
x(11,18)                                            1 	(obj:1)
x(11,19)                                            1 	(obj:1)
x(12,3)                                             1 	(obj:1)
x(12,6)                                             1 	(obj:1)
x(12,8)                                             1 	(obj:1)
x(12,10)                                            1 	(obj:1)
x(12,15)                                            1 	(obj:1)
x(13,4)                                             1 	(obj:1)
x(13,12)                                            1 	(obj:1)
x(13,17)                                            1 	(obj:1)
x(14,1)                                             1 	(obj:1)
x(14,2)                                             1 	(obj:1)
x(14,7)                                             1 	(obj:1)
x(14,9)                                             1 	(obj:1)
x(14,14)                                            1 	(obj:1)
x(14,19)                                            1 	(obj:1)
x(15,5)                                             1 	(obj:1)
x(15,11)                                            1 	(obj:1)
x(15,16)                                            1 	(obj:1)
x(16,3)                                             1 	(obj:1)
x(16,8)                                             1 	(obj:1)
x(16,13)                                            1 	(obj:1)
x(16,18)                                            1 	(obj:1)
x(17,1)                                             1 	(obj:1)
x(17,6)                                             1 	(obj:1)
x(17,10)                                            1 	(obj:1)
x(17,15)                                            1 	(obj:1)
x(17,16)                                            1 	(obj:1)
x(18,4)                                             1 	(obj:1)
x(18,8)                                             1 	(obj:1)
x(18,12)                                            1 	(obj:1)
x(18,19)                                            1 	(obj:1)
x(19,2)                                             1 	(obj:1)
x(19,6)                                             1 	(obj:1)
x(19,10)                                            1 	(obj:1)
x(19,14)                                            1 	(obj:1)
x(19,17)                                            1 	(obj:1)
